2012,11,20,15,0,0
2012,11,20,15,1,0
2012,11,20,15,2,0
2012,11,20,15,3,0
2012,11,20,15,4,0
2012,11,20,15,5,0
2012,11,20,15,6,0
2012,11,20,15,7,0
2012,11,20,15,8,0
2012,11,20,15,9,0
2012,11,20,15,10,0
2012,11,20,15,11,0
2012,11,20,15,12,0
2012,11,20,15,13,0
2012,11,20,15,14,0
2012,11,20,15,15,0
2012,11,20,15,16,0
2012,11,20,15,17,0
2012,11,20,15,18,0
2012,11,20,15,19,0
2012,11,20,15,20,0
2012,11,20,15,21,0
2012,11,20,15,22,0
2012,11,20,15,23,0
2012,11,20,15,24,0
2012,11,20,15,25,0
2012,11,20,15,26,0
2012,11,20,15,27,0
2012,11,20,15,28,0
2012,11,20,15,29,0
2012,11,20,15,30,0
2012,11,20,15,31,0
2012,11,20,15,32,0
2012,11,20,15,33,0
2012,11,20,15,34,0
2012,11,20,15,35,0
2012,11,20,15,36,0
2012,11,20,15,37,0
2012,11,20,15,38,0
2012,11,20,15,39,0
2012,11,20,15,40,0
2012,11,20,15,41,0
2012,11,20,15,42,0
2012,11,20,15,43,0
2012,11,20,15,44,0
2012,11,20,15,45,0
2012,11,20,15,46,0
2012,11,20,15,47,0
2012,11,20,15,48,0
2012,11,20,15,49,0
2012,11,20,15,50,0
2012,11,20,15,51,0
2012,11,20,15,52,0
2012,11,20,15,53,0
2012,11,20,15,54,0
2012,11,20,15,55,0
2012,11,20,15,56,0
2012,11,20,15,57,0
2012,11,20,15,58,0
2012,11,20,15,59,0
2012,11,20,16,0,0
2012,11,20,16,1,0
2012,11,20,16,2,0
2012,11,20,16,3,0
2012,11,20,16,4,0
2012,11,20,16,5,0
2012,11,20,16,6,0
2012,11,20,16,7,0
2012,11,20,16,8,0
2012,11,20,16,9,0
2012,11,20,16,10,0
2012,11,20,16,11,0
2012,11,20,16,12,0
2012,11,20,16,13,0
2012,11,20,16,14,0
2012,11,20,16,15,0
2012,11,20,16,16,0
2012,11,20,16,17,0
2012,11,20,16,18,0
2012,11,20,16,19,0
2012,11,20,16,20,0
2012,11,20,16,21,0
2012,11,20,16,22,0
2012,11,20,16,23,0
2012,11,20,16,24,0
2012,11,20,16,25,0
2012,11,20,16,26,0
2012,11,20,16,27,0
2012,11,20,16,28,0
2012,11,20,16,29,0
2012,11,20,16,30,0
2012,11,20,16,31,0
2012,11,20,16,32,0
2012,11,20,16,33,0
2012,11,20,16,34,0
2012,11,20,16,35,0
2012,11,20,16,36,0
2012,11,20,16,37,0
2012,11,20,16,38,0
2012,11,20,16,39,0
2012,11,20,16,40,0
2012,11,20,16,41,0
2012,11,20,16,42,0
2012,11,20,16,43,0
2012,11,20,16,44,0
2012,11,20,16,45,0
2012,11,20,16,46,0
2012,11,20,16,47,0
2012,11,20,16,48,0
2012,11,20,16,49,0
2012,11,20,16,50,0
2012,11,20,16,51,0
2012,11,20,16,52,0
2012,11,20,16,53,0
2012,11,20,16,54,0
2012,11,20,16,55,0
2012,11,20,16,56,0
2012,11,20,16,57,0
2012,11,20,16,58,0
2012,11,20,16,59,0
2012,11,20,17,0,0
2012,11,20,17,1,0
2012,11,20,17,2,0
2012,11,20,17,3,0
2012,11,20,17,4,0
2012,11,20,17,5,0
2012,11,20,17,6,0
2012,11,20,17,7,0
2012,11,20,17,8,0
2012,11,20,17,9,0
2012,11,20,17,10,0
2012,11,20,17,11,0
2012,11,20,17,12,0
2012,11,20,17,13,0
2012,11,20,17,14,0
2012,11,20,17,15,0
2012,11,20,17,16,0
2012,11,20,17,17,0
2012,11,20,17,18,0
2012,11,20,17,19,0
2012,11,20,17,20,0
2012,11,20,17,21,0
2012,11,20,17,22,0
2012,11,20,17,23,0
2012,11,20,17,24,0
2012,11,20,17,25,0
2012,11,20,17,26,0
2012,11,20,17,27,0
2012,11,20,17,28,0
2012,11,20,17,29,0
2012,11,20,17,30,0
2012,11,20,17,31,0
2012,11,20,17,32,0
2012,11,20,17,33,0
2012,11,20,17,34,0
2012,11,20,17,35,0
2012,11,20,17,36,0
2012,11,20,17,37,0
2012,11,20,17,38,0
2012,11,20,17,39,0
2012,11,20,17,40,0
2012,11,20,17,41,0
2012,11,20,17,42,0
2012,11,20,17,43,0
2012,11,20,17,44,0
2012,11,20,17,45,0
2012,11,20,17,46,0
2012,11,20,17,47,0
2012,11,20,17,48,0
2012,11,20,17,49,0
2012,11,20,17,50,0
2012,11,20,17,51,0
2012,11,20,17,52,0
2012,11,20,17,53,0
2012,11,20,17,54,0
2012,11,20,17,55,0
2012,11,20,17,56,0
2012,11,20,17,57,0
2012,11,20,17,58,0
2012,11,20,17,59,0
2012,11,20,18,0,0
2012,11,20,18,1,0
2012,11,20,18,2,0
2012,11,20,18,3,0
2012,11,20,18,4,0
2012,11,20,18,5,0
2012,11,20,18,6,0
2012,11,20,18,7,0
2012,11,20,18,8,0
2012,11,20,18,9,0
2012,11,20,18,10,0
2012,11,20,18,11,0
2012,11,20,18,12,0
2012,11,20,18,13,0
2012,11,20,18,14,0
2012,11,20,18,15,0
2012,11,20,18,16,0
2012,11,20,18,17,0
2012,11,20,18,18,0
2012,11,20,18,19,0
2012,11,20,18,20,0
2012,11,20,18,21,0
2012,11,20,18,22,0
2012,11,20,18,23,0
2012,11,20,18,24,0
2012,11,20,18,25,0
2012,11,20,18,26,0
2012,11,20,18,27,0
2012,11,20,18,28,0
2012,11,20,18,29,0
2012,11,20,18,30,0
2012,11,20,18,31,0
2012,11,20,18,32,0
2012,11,20,18,33,0
2012,11,20,18,34,0
2012,11,20,18,35,0
2012,11,20,18,36,0
2012,11,20,18,37,0
2012,11,20,18,38,0
2012,11,20,18,39,0
2012,11,20,18,40,0
2012,11,20,18,41,0
2012,11,20,18,42,0
2012,11,20,18,43,0
2012,11,20,18,44,0
2012,11,20,18,45,0
2012,11,20,18,46,0
2012,11,20,18,47,0
2012,11,20,18,48,0
2012,11,20,18,49,0
2012,11,20,18,50,0
2012,11,20,18,51,0
2012,11,20,18,52,0
2012,11,20,18,53,0
2012,11,20,18,54,0
2012,11,20,18,55,0
2012,11,20,18,56,0
2012,11,20,18,57,0
2012,11,20,18,58,0
2012,11,20,18,59,0
2012,11,20,19,0,0
2012,11,20,19,1,0
2012,11,20,19,2,0
2012,11,20,19,3,0
2012,11,20,19,4,0
2012,11,20,19,5,0
2012,11,20,19,6,0
2012,11,20,19,7,0
2012,11,20,19,8,0
2012,11,20,19,9,0
2012,11,20,19,10,0
2012,11,20,19,11,0
2012,11,20,19,12,0
2012,11,20,19,13,0
2012,11,20,19,14,0
2012,11,20,19,15,0
2012,11,20,19,16,0
2012,11,20,19,17,0
2012,11,20,19,18,0
2012,11,20,19,19,0
2012,11,20,19,20,0
2012,11,20,19,21,0
2012,11,20,19,22,0
2012,11,20,19,23,0
2012,11,20,19,24,0
2012,11,20,19,25,0
2012,11,20,19,26,0
2012,11,20,19,27,0
2012,11,20,19,28,0
2012,11,20,19,29,0
2012,11,20,19,30,0
2012,11,20,19,31,0
2012,11,20,19,32,0
2012,11,20,19,33,0
2012,11,20,19,34,0
2012,11,20,19,35,0
2012,11,20,19,36,0
2012,11,20,19,37,0
2012,11,20,19,38,0
2012,11,20,19,39,0
2012,11,20,19,40,0
2012,11,20,19,41,0
2012,11,20,19,42,0
2012,11,20,19,43,0
2012,11,20,19,44,0
2012,11,20,19,45,0
2012,11,20,19,46,0
2012,11,20,19,47,0
2012,11,20,19,48,0
2012,11,20,19,49,0
2012,11,20,19,50,0
2012,11,20,19,51,0
2012,11,20,19,52,0
2012,11,20,19,53,0
2012,11,20,19,54,0
2012,11,20,19,55,0
2012,11,20,19,56,0
2012,11,20,19,57,0
2012,11,20,19,58,0
2012,11,20,19,59,0
2012,11,20,20,0,0
2012,11,20,20,1,0
2012,11,20,20,2,0
2012,11,20,20,3,0
2012,11,20,20,4,0
2012,11,20,20,5,0
2012,11,20,20,6,0
2012,11,20,20,7,0
2012,11,20,20,8,0
2012,11,20,20,9,0
2012,11,20,20,10,0
2012,11,20,20,11,0
2012,11,20,20,12,0
2012,11,20,20,13,0
2012,11,20,20,14,0
2012,11,20,20,15,0
2012,11,20,20,16,0
2012,11,20,20,17,0
2012,11,20,20,18,0
2012,11,20,20,19,0
2012,11,20,20,20,0
2012,11,20,20,21,0
2012,11,20,20,22,0
2012,11,20,20,23,0
2012,11,20,20,24,0
2012,11,20,20,25,0
2012,11,20,20,26,0
2012,11,20,20,27,0
2012,11,20,20,28,0
2012,11,20,20,29,0
2012,11,20,20,30,0
2012,11,20,20,31,0
2012,11,20,20,32,0
2012,11,20,20,33,0
2012,11,20,20,34,0
2012,11,20,20,35,0
2012,11,20,20,36,0
2012,11,20,20,37,0
2012,11,20,20,38,0
2012,11,20,20,39,0
2012,11,20,20,40,0
2012,11,20,20,41,0
2012,11,20,20,42,0
2012,11,20,20,43,0
2012,11,20,20,44,0
2012,11,20,20,45,0
2012,11,20,20,46,0
2012,11,20,20,47,0
2012,11,20,20,48,0
2012,11,20,20,49,0
2012,11,20,20,50,0
2012,11,20,20,51,0
2012,11,20,20,52,0
2012,11,20,20,53,0
2012,11,20,20,54,0
2012,11,20,20,55,0
2012,11,20,20,56,0
2012,11,20,20,57,0
2012,11,20,20,58,0
2012,11,20,20,59,0
2012,11,20,21,0,0
2012,11,20,21,1,0
2012,11,20,21,2,0
2012,11,20,21,3,0
2012,11,20,21,4,0
2012,11,20,21,5,0
2012,11,20,21,6,0
2012,11,20,21,7,0
2012,11,20,21,8,0
2012,11,20,21,9,0
2012,11,20,21,10,0
2012,11,20,21,11,0
2012,11,20,21,12,0
2012,11,20,21,13,0
2012,11,20,21,14,0
2012,11,20,21,15,0
2012,11,20,21,16,0
2012,11,20,21,17,0
2012,11,20,21,18,0
2012,11,20,21,19,0
2012,11,20,21,20,0
2012,11,20,21,21,0
2012,11,20,21,22,0
2012,11,20,21,23,0
2012,11,20,21,24,0
2012,11,20,21,25,0
2012,11,20,21,26,0
2012,11,20,21,27,0
2012,11,20,21,28,0
2012,11,20,21,29,0
2012,11,20,21,30,0
2012,11,20,21,31,0
2012,11,20,21,32,0
2012,11,20,21,33,0
2012,11,20,21,34,0
2012,11,20,21,35,0
2012,11,20,21,36,0
2012,11,20,21,37,0
2012,11,20,21,38,0
2012,11,20,21,39,0
2012,11,20,21,40,0
2012,11,20,21,41,0
2012,11,20,21,42,0
2012,11,20,21,43,0
2012,11,20,21,44,0
2012,11,20,21,45,0
2012,11,20,21,46,0
2012,11,20,21,47,0
2012,11,20,21,48,0
2012,11,20,21,49,0
2012,11,20,21,50,0
2012,11,20,21,51,0
2012,11,20,21,52,0
2012,11,20,21,53,0
2012,11,20,21,54,0
2012,11,20,21,55,0
2012,11,20,21,56,0
2012,11,20,21,57,0
2012,11,20,21,58,0
2012,11,20,21,59,0
2012,11,20,22,0,0
2012,11,20,22,1,0
2012,11,20,22,2,0
2012,11,20,22,3,0
2012,11,20,22,4,0
2012,11,20,22,5,0
2012,11,20,22,6,0
2012,11,20,22,7,0
2012,11,20,22,8,0
2012,11,20,22,9,0
2012,11,20,22,10,0
2012,11,20,22,11,0
2012,11,20,22,12,0
2012,11,20,22,13,0
2012,11,20,22,14,0
2012,11,20,22,15,0
2012,11,20,22,16,0
2012,11,20,22,17,0
2012,11,20,22,18,0
2012,11,20,22,19,0
2012,11,20,22,20,0
2012,11,20,22,21,0
2012,11,20,22,22,0
2012,11,20,22,23,0
2012,11,20,22,24,0
2012,11,20,22,25,0
2012,11,20,22,26,0
2012,11,20,22,27,0
2012,11,20,22,28,0
2012,11,20,22,29,0
2012,11,20,22,30,0
2012,11,20,22,31,0
2012,11,20,22,32,0
2012,11,20,22,33,0
2012,11,20,22,34,0
2012,11,20,22,35,0
2012,11,20,22,36,0
2012,11,20,22,37,0
2012,11,20,22,38,0
2012,11,20,22,39,0
2012,11,20,22,40,0
2012,11,20,22,41,0
2012,11,20,22,42,0
2012,11,20,22,43,0
2012,11,20,22,44,0
2012,11,20,22,45,0
2012,11,20,22,46,0
2012,11,20,22,47,0
2012,11,20,22,48,0
2012,11,20,22,49,0
2012,11,20,22,50,0
2012,11,20,22,51,0
2012,11,20,22,52,0
2012,11,20,22,53,0
2012,11,20,22,54,0
2012,11,20,22,55,0
2012,11,20,22,56,0
2012,11,20,22,57,0
2012,11,20,22,58,0
2012,11,20,22,59,0
2012,11,20,23,0,0
2012,11,20,23,1,0
2012,11,20,23,2,0
2012,11,20,23,3,0
2012,11,20,23,4,0
2012,11,20,23,5,0
2012,11,20,23,6,0
2012,11,20,23,7,0
2012,11,20,23,8,0
2012,11,20,23,9,0
2012,11,20,23,10,0
2012,11,20,23,11,0
2012,11,20,23,12,0
2012,11,20,23,13,0
2012,11,20,23,14,0
2012,11,20,23,15,0
2012,11,20,23,16,0
2012,11,20,23,17,0
2012,11,20,23,18,0
2012,11,20,23,19,0
2012,11,20,23,20,0
2012,11,20,23,21,0
2012,11,20,23,22,0
2012,11,20,23,23,0
2012,11,20,23,24,0
2012,11,20,23,25,0
2012,11,20,23,26,0
2012,11,20,23,27,0
2012,11,20,23,28,0
2012,11,20,23,29,0
2012,11,20,23,30,0
2012,11,20,23,31,0
2012,11,20,23,32,0
2012,11,20,23,33,0
2012,11,20,23,34,0
2012,11,20,23,35,0
2012,11,20,23,36,0
2012,11,20,23,37,0
2012,11,20,23,38,0
2012,11,20,23,39,0
2012,11,20,23,40,0
2012,11,20,23,41,0
2012,11,20,23,42,0
2012,11,20,23,43,0
2012,11,20,23,44,0
2012,11,20,23,45,0
2012,11,20,23,46,0
2012,11,20,23,47,0
2012,11,20,23,48,0
2012,11,20,23,49,0
2012,11,20,23,50,0
2012,11,20,23,51,0
2012,11,20,23,52,0
2012,11,20,23,53,0
2012,11,20,23,54,0
2012,11,20,23,55,0
2012,11,20,23,56,0
2012,11,20,23,57,0
2012,11,20,23,58,0
2012,11,20,23,59,0
2012,11,21,0,0,0
2012,11,21,0,1,0
2012,11,21,0,2,0
2012,11,21,0,3,0
2012,11,21,0,4,0
2012,11,21,0,5,0
2012,11,21,0,6,0
2012,11,21,0,7,0
2012,11,21,0,8,0
2012,11,21,0,9,0
2012,11,21,0,10,0
2012,11,21,0,11,0
2012,11,21,0,12,0
2012,11,21,0,13,0
2012,11,21,0,14,0
2012,11,21,0,15,0
2012,11,21,0,16,0
2012,11,21,0,17,0
2012,11,21,0,18,0
2012,11,21,0,19,0
2012,11,21,0,20,0
2012,11,21,0,21,0
2012,11,21,0,22,0
2012,11,21,0,23,0
2012,11,21,0,24,0
2012,11,21,0,25,0
2012,11,21,0,26,0
2012,11,21,0,27,0
2012,11,21,0,28,0
2012,11,21,0,29,0
2012,11,21,0,30,0
2012,11,21,0,31,0
2012,11,21,0,32,0
2012,11,21,0,33,0
2012,11,21,0,34,0
2012,11,21,0,35,0
2012,11,21,0,36,0
2012,11,21,0,37,0
2012,11,21,0,38,0
2012,11,21,0,39,0
2012,11,21,0,40,0
2012,11,21,0,41,0
2012,11,21,0,42,0
2012,11,21,0,43,0
2012,11,21,0,44,0
2012,11,21,0,45,0
2012,11,21,0,46,0
2012,11,21,0,47,0
2012,11,21,0,48,0
2012,11,21,0,49,0
2012,11,21,0,50,0
2012,11,21,0,51,0
2012,11,21,0,52,0
2012,11,21,0,53,0
2012,11,21,0,54,0
2012,11,21,0,55,0
2012,11,21,0,56,0
2012,11,21,0,57,0
2012,11,21,0,58,0
2012,11,21,0,59,0
2012,11,21,1,0,0
2012,11,21,1,1,0
2012,11,21,1,2,0
2012,11,21,1,3,0
2012,11,21,1,4,0
2012,11,21,1,5,0
2012,11,21,1,6,0
2012,11,21,1,7,0
2012,11,21,1,8,0
2012,11,21,1,9,0
2012,11,21,1,10,0
2012,11,21,1,11,0
2012,11,21,1,12,0
2012,11,21,1,13,0
2012,11,21,1,14,0
2012,11,21,1,15,0
2012,11,21,1,16,0
2012,11,21,1,17,0
2012,11,21,1,18,0
2012,11,21,1,19,0
2012,11,21,1,20,0
2012,11,21,1,21,0
2012,11,21,1,22,0
2012,11,21,1,23,0
2012,11,21,1,24,0
2012,11,21,1,25,0
2012,11,21,1,26,0
2012,11,21,1,27,0
2012,11,21,1,28,0
2012,11,21,1,29,0
2012,11,21,1,30,0
2012,11,21,1,31,0
2012,11,21,1,32,0
2012,11,21,1,33,0
2012,11,21,1,34,0
2012,11,21,1,35,0
2012,11,21,1,36,0
2012,11,21,1,37,0
2012,11,21,1,38,0
2012,11,21,1,39,0
2012,11,21,1,40,0
2012,11,21,1,41,0
2012,11,21,1,42,0
2012,11,21,1,43,0
2012,11,21,1,44,0
2012,11,21,1,45,0
2012,11,21,1,46,0
2012,11,21,1,47,0
2012,11,21,1,48,0
2012,11,21,1,49,0
2012,11,21,1,50,0
2012,11,21,1,51,0
2012,11,21,1,52,0
2012,11,21,1,53,0
2012,11,21,1,54,0
2012,11,21,1,55,0
2012,11,21,1,56,0
2012,11,21,1,57,0
2012,11,21,1,58,0
2012,11,21,1,59,0
2012,11,21,2,0,0
2012,11,21,2,1,0
2012,11,21,2,2,0
2012,11,21,2,3,0
2012,11,21,2,4,0
2012,11,21,2,5,0
2012,11,21,2,6,0
2012,11,21,2,7,0
2012,11,21,2,8,0
2012,11,21,2,9,0
2012,11,21,2,10,0
2012,11,21,2,11,0
2012,11,21,2,12,0
2012,11,21,2,13,0
2012,11,21,2,14,0
2012,11,21,2,15,0
2012,11,21,2,16,0
2012,11,21,2,17,0
2012,11,21,2,18,0
2012,11,21,2,19,0
2012,11,21,2,20,0
2012,11,21,2,21,0
2012,11,21,2,22,0
2012,11,21,2,23,0
2012,11,21,2,24,0
2012,11,21,2,25,0
2012,11,21,2,26,0
2012,11,21,2,27,0
2012,11,21,2,28,0
2012,11,21,2,29,0
2012,11,21,2,30,0
2012,11,21,2,31,0
2012,11,21,2,32,0
2012,11,21,2,33,0
2012,11,21,2,34,0
2012,11,21,2,35,0
2012,11,21,2,36,0
2012,11,21,2,37,0
2012,11,21,2,38,0
2012,11,21,2,39,0
2012,11,21,2,40,0
2012,11,21,2,41,0
2012,11,21,2,42,0
2012,11,21,2,43,0
2012,11,21,2,44,0
2012,11,21,2,45,0
2012,11,21,2,46,0
2012,11,21,2,47,0
2012,11,21,2,48,0
2012,11,21,2,49,0
2012,11,21,2,50,0
2012,11,21,2,51,0
2012,11,21,2,52,0
2012,11,21,2,53,0
2012,11,21,2,54,0
2012,11,21,2,55,0
2012,11,21,2,56,0
2012,11,21,2,57,0
2012,11,21,2,58,0
2012,11,21,2,59,0
2012,11,21,3,0,0
2012,11,21,3,1,0
2012,11,21,3,2,0
2012,11,21,3,3,0
2012,11,21,3,4,0
2012,11,21,3,5,0
2012,11,21,3,6,0
2012,11,21,3,7,0
2012,11,21,3,8,0
2012,11,21,3,9,0
2012,11,21,3,10,0
2012,11,21,3,11,0
2012,11,21,3,12,0
2012,11,21,3,13,0
2012,11,21,3,14,0
2012,11,21,3,15,0
2012,11,21,3,16,0
2012,11,21,3,17,0
2012,11,21,3,18,0
2012,11,21,3,19,0
2012,11,21,3,20,0
2012,11,21,3,21,0
2012,11,21,3,22,0
2012,11,21,3,23,0
2012,11,21,3,24,0
2012,11,21,3,25,0
2012,11,21,3,26,0
2012,11,21,3,27,0
2012,11,21,3,28,0
2012,11,21,3,29,0
2012,11,21,3,30,0
2012,11,21,3,31,0
2012,11,21,3,32,0
2012,11,21,3,33,0
2012,11,21,3,34,0
2012,11,21,3,35,0
2012,11,21,3,36,0
2012,11,21,3,37,0
2012,11,21,3,38,0
2012,11,21,3,39,0
2012,11,21,3,40,0
2012,11,21,3,41,0
2012,11,21,3,42,0
2012,11,21,3,43,0
2012,11,21,3,44,0
2012,11,21,3,45,0
2012,11,21,3,46,0
2012,11,21,3,47,0
2012,11,21,3,48,0
2012,11,21,3,49,0
2012,11,21,3,50,0
2012,11,21,3,51,0
2012,11,21,3,52,0
2012,11,21,3,53,0
2012,11,21,3,54,0
2012,11,21,3,55,0
2012,11,21,3,56,0
2012,11,21,3,57,0
2012,11,21,3,58,0
2012,11,21,3,59,0
2012,11,21,4,0,0
2012,11,21,4,1,0
2012,11,21,4,2,0
2012,11,21,4,3,0
2012,11,21,4,4,0
2012,11,21,4,5,0
2012,11,21,4,6,0
2012,11,21,4,7,0
2012,11,21,4,8,0
2012,11,21,4,9,0
2012,11,21,4,10,0
2012,11,21,4,11,0
2012,11,21,4,12,0
2012,11,21,4,13,0
2012,11,21,4,14,0
2012,11,21,4,15,0
2012,11,21,4,16,0
2012,11,21,4,17,0
2012,11,21,4,18,0
2012,11,21,4,19,0
2012,11,21,4,20,0
2012,11,21,4,21,0
2012,11,21,4,22,0
2012,11,21,4,23,0
2012,11,21,4,24,0
2012,11,21,4,25,0
2012,11,21,4,26,0
2012,11,21,4,27,0
2012,11,21,4,28,0
2012,11,21,4,29,0
2012,11,21,4,30,0
2012,11,21,4,31,0
2012,11,21,4,32,0
2012,11,21,4,33,0
2012,11,21,4,34,0
2012,11,21,4,35,0
2012,11,21,4,36,0
2012,11,21,4,37,0
2012,11,21,4,38,0
2012,11,21,4,39,0
2012,11,21,4,40,0
2012,11,21,4,41,0
2012,11,21,4,42,0
2012,11,21,4,43,0
2012,11,21,4,44,0
2012,11,21,4,45,0
2012,11,21,4,46,0
2012,11,21,4,47,0
2012,11,21,4,48,0
2012,11,21,4,49,0
2012,11,21,4,50,0
2012,11,21,4,51,0
2012,11,21,4,52,0
2012,11,21,4,53,0
2012,11,21,4,54,0
2012,11,21,4,55,0
2012,11,21,4,56,0
2012,11,21,4,57,0
2012,11,21,4,58,0
2012,11,21,4,59,0
2012,11,21,5,0,0
2012,11,21,5,1,0
2012,11,21,5,2,0
2012,11,21,5,3,0
2012,11,21,5,4,0
2012,11,21,5,5,0
2012,11,21,5,6,0
2012,11,21,5,7,0
2012,11,21,5,8,0
2012,11,21,5,9,0
2012,11,21,5,10,0
2012,11,21,5,11,0
2012,11,21,5,12,0
2012,11,21,5,13,0
2012,11,21,5,14,0
2012,11,21,5,15,0
2012,11,21,5,16,0
2012,11,21,5,17,0
2012,11,21,5,18,0
2012,11,21,5,19,0
2012,11,21,5,20,0
2012,11,21,5,21,0
2012,11,21,5,22,0
2012,11,21,5,23,0
2012,11,21,5,24,0
2012,11,21,5,25,0
2012,11,21,5,26,0
2012,11,21,5,27,0
2012,11,21,5,28,0
2012,11,21,5,29,0
2012,11,21,5,30,0
2012,11,21,5,31,0
2012,11,21,5,32,0
2012,11,21,5,33,0
2012,11,21,5,34,0
2012,11,21,5,35,0
2012,11,21,5,36,0
2012,11,21,5,37,0
2012,11,21,5,38,0
2012,11,21,5,39,0
2012,11,21,5,40,0
2012,11,21,5,41,0
2012,11,21,5,42,0
2012,11,21,5,43,0
2012,11,21,5,44,0
2012,11,21,5,45,0
2012,11,21,5,46,0
2012,11,21,5,47,0
2012,11,21,5,48,0
2012,11,21,5,49,0
2012,11,21,5,50,0
2012,11,21,5,51,0
2012,11,21,5,52,0
2012,11,21,5,53,0
2012,11,21,5,54,0
2012,11,21,5,55,0
2012,11,21,5,56,0
2012,11,21,5,57,0
2012,11,21,5,58,0
2012,11,21,5,59,0
2012,11,21,6,0,0
2012,11,21,6,1,0
2012,11,21,6,2,0
2012,11,21,6,3,0
2012,11,21,6,4,0
2012,11,21,6,5,0
2012,11,21,6,6,0
2012,11,21,6,7,0
2012,11,21,6,8,0
2012,11,21,6,9,0
2012,11,21,6,10,0
2012,11,21,6,11,0
2012,11,21,6,12,0
2012,11,21,6,13,0
2012,11,21,6,14,0
2012,11,21,6,15,0
2012,11,21,6,16,0
2012,11,21,6,17,0
2012,11,21,6,18,0
2012,11,21,6,19,0
2012,11,21,6,20,0
2012,11,21,6,21,0
2012,11,21,6,22,0
2012,11,21,6,23,0
2012,11,21,6,24,0
2012,11,21,6,25,0
2012,11,21,6,26,0
2012,11,21,6,27,0
2012,11,21,6,28,0
2012,11,21,6,29,0
2012,11,21,6,30,0
2012,11,21,6,31,0
2012,11,21,6,32,0
2012,11,21,6,33,0
2012,11,21,6,34,0
2012,11,21,6,35,0
2012,11,21,6,36,0
2012,11,21,6,37,0
2012,11,21,6,38,0
2012,11,21,6,39,0
2012,11,21,6,40,0
2012,11,21,6,41,0
2012,11,21,6,42,0
2012,11,21,6,43,0
2012,11,21,6,44,0
2012,11,21,6,45,0
2012,11,21,6,46,0
2012,11,21,6,47,0
2012,11,21,6,48,0
2012,11,21,6,49,0
2012,11,21,6,50,0
2012,11,21,6,51,0
2012,11,21,6,52,0
2012,11,21,6,53,0
2012,11,21,6,54,0
2012,11,21,6,55,0
2012,11,21,6,56,0
2012,11,21,6,57,0
2012,11,21,6,58,0
2012,11,21,6,59,0
2012,11,21,7,0,0
2012,11,21,7,1,0
2012,11,21,7,2,0
2012,11,21,7,3,0
2012,11,21,7,4,0
2012,11,21,7,5,0
2012,11,21,7,6,0
2012,11,21,7,7,0
2012,11,21,7,8,0
2012,11,21,7,9,0
2012,11,21,7,10,0
2012,11,21,7,11,0
2012,11,21,7,12,0
2012,11,21,7,13,0
2012,11,21,7,14,0
2012,11,21,7,15,0
2012,11,21,7,16,0
2012,11,21,7,17,0
2012,11,21,7,18,0
2012,11,21,7,19,0
2012,11,21,7,20,0
2012,11,21,7,21,0
2012,11,21,7,22,0
2012,11,21,7,23,0
2012,11,21,7,24,0
2012,11,21,7,25,0
2012,11,21,7,26,0
2012,11,21,7,27,0
2012,11,21,7,28,0
2012,11,21,7,29,0
2012,11,21,7,30,0
2012,11,21,7,31,0
2012,11,21,7,32,0
2012,11,21,7,33,0
2012,11,21,7,34,0
2012,11,21,7,35,0
2012,11,21,7,36,0
2012,11,21,7,37,0
2012,11,21,7,38,0
2012,11,21,7,39,0
2012,11,21,7,40,0
2012,11,21,7,41,0
2012,11,21,7,42,0
2012,11,21,7,43,0
2012,11,21,7,44,0
2012,11,21,7,45,0
2012,11,21,7,46,0
2012,11,21,7,47,0
2012,11,21,7,48,0
2012,11,21,7,49,0
2012,11,21,7,50,0
2012,11,21,7,51,0
2012,11,21,7,52,0
2012,11,21,7,53,0
2012,11,21,7,54,0
2012,11,21,7,55,0
2012,11,21,7,56,0
2012,11,21,7,57,0
2012,11,21,7,58,0
2012,11,21,7,59,0
2012,11,21,8,0,0
2012,11,21,8,1,0
2012,11,21,8,2,0
2012,11,21,8,3,0
2012,11,21,8,4,0
2012,11,21,8,5,0
2012,11,21,8,6,0
2012,11,21,8,7,0
2012,11,21,8,8,0
2012,11,21,8,9,0
2012,11,21,8,10,0
2012,11,21,8,11,0
2012,11,21,8,12,0
2012,11,21,8,13,0
2012,11,21,8,14,0
2012,11,21,8,15,0
2012,11,21,8,16,0
2012,11,21,8,17,0
2012,11,21,8,18,0
2012,11,21,8,19,0
2012,11,21,8,20,0
2012,11,21,8,21,0
2012,11,21,8,22,0
2012,11,21,8,23,0
2012,11,21,8,24,0
2012,11,21,8,25,0
2012,11,21,8,26,0
2012,11,21,8,27,0
2012,11,21,8,28,0
2012,11,21,8,29,0
2012,11,21,8,30,0
2012,11,21,8,31,0
2012,11,21,8,32,0
2012,11,21,8,33,0
2012,11,21,8,34,0
2012,11,21,8,35,0
2012,11,21,8,36,0
2012,11,21,8,37,0
2012,11,21,8,38,0
2012,11,21,8,39,0
2012,11,21,8,40,0
2012,11,21,8,41,0
2012,11,21,8,42,0
2012,11,21,8,43,0
2012,11,21,8,44,0
2012,11,21,8,45,0
2012,11,21,8,46,0
2012,11,21,8,47,0
2012,11,21,8,48,0
2012,11,21,8,49,0
2012,11,21,8,50,0
2012,11,21,8,51,0
2012,11,21,8,52,0
2012,11,21,8,53,0
2012,11,21,8,54,0
2012,11,21,8,55,0
2012,11,21,8,56,0
2012,11,21,8,57,0
2012,11,21,8,58,0
2012,11,21,8,59,0
2012,11,21,9,0,0
2012,11,21,9,1,0
2012,11,21,9,2,0
2012,11,21,9,3,0
2012,11,21,9,4,0
2012,11,21,9,5,0
2012,11,21,9,6,0
2012,11,21,9,7,0
2012,11,21,9,8,0
2012,11,21,9,9,0
2012,11,21,9,10,0
2012,11,21,9,11,0
2012,11,21,9,12,0
2012,11,21,9,13,0
2012,11,21,9,14,0
2012,11,21,9,15,0
2012,11,21,9,16,0
2012,11,21,9,17,0
2012,11,21,9,18,0
2012,11,21,9,19,0
2012,11,21,9,20,0
2012,11,21,9,21,0
2012,11,21,9,22,0
2012,11,21,9,23,0
2012,11,21,9,24,0
2012,11,21,9,25,0
2012,11,21,9,26,0
2012,11,21,9,27,0
2012,11,21,9,28,0
2012,11,21,9,29,0
2012,11,21,9,30,0
2012,11,21,9,31,0
2012,11,21,9,32,0
2012,11,21,9,33,0
2012,11,21,9,34,0
2012,11,21,9,35,0
2012,11,21,9,36,0
2012,11,21,9,37,0
2012,11,21,9,38,0
2012,11,21,9,39,0
2012,11,21,9,40,0
2012,11,21,9,41,0
2012,11,21,9,42,0
2012,11,21,9,43,0
2012,11,21,9,44,0
2012,11,21,9,45,0
2012,11,21,9,46,0
2012,11,21,9,47,0
2012,11,21,9,48,0
2012,11,21,9,49,0
2012,11,21,9,50,0
2012,11,21,9,51,0
2012,11,21,9,52,0
2012,11,21,9,53,0
2012,11,21,9,54,0
2012,11,21,9,55,0
2012,11,21,9,56,0
2012,11,21,9,57,0
2012,11,21,9,58,0
2012,11,21,9,59,0
2012,11,21,10,0,0
2012,11,21,10,1,0
2012,11,21,10,2,0
2012,11,21,10,3,0
2012,11,21,10,4,0
2012,11,21,10,5,0
2012,11,21,10,6,0
2012,11,21,10,7,0
2012,11,21,10,8,0
2012,11,21,10,9,0
2012,11,21,10,10,0
2012,11,21,10,11,0
2012,11,21,10,12,0
2012,11,21,10,13,0
2012,11,21,10,14,0
2012,11,21,10,15,0
2012,11,21,10,16,0
2012,11,21,10,17,0
2012,11,21,10,18,0
2012,11,21,10,19,0
2012,11,21,10,20,0
2012,11,21,10,21,0
2012,11,21,10,22,0
2012,11,21,10,23,0
2012,11,21,10,24,0
2012,11,21,10,25,0
2012,11,21,10,26,0
2012,11,21,10,27,0
2012,11,21,10,28,0
2012,11,21,10,29,0
2012,11,21,10,30,0
2012,11,21,10,31,0
2012,11,21,10,32,0
2012,11,21,10,33,0
2012,11,21,10,34,0
2012,11,21,10,35,0
2012,11,21,10,36,0
2012,11,21,10,37,0
2012,11,21,10,38,0
2012,11,21,10,39,0
2012,11,21,10,40,0
2012,11,21,10,41,0
2012,11,21,10,42,0
2012,11,21,10,43,0
2012,11,21,10,44,0
2012,11,21,10,45,0
2012,11,21,10,46,0
2012,11,21,10,47,0
2012,11,21,10,48,0
2012,11,21,10,49,0
2012,11,21,10,50,0
2012,11,21,10,51,0
2012,11,21,10,52,0
2012,11,21,10,53,0
2012,11,21,10,54,0
2012,11,21,10,55,0
2012,11,21,10,56,0
2012,11,21,10,57,0
2012,11,21,10,58,0
2012,11,21,10,59,0
2012,11,21,11,0,0
2012,11,21,11,1,0
2012,11,21,11,2,0
2012,11,21,11,3,0
2012,11,21,11,4,0
2012,11,21,11,5,0
2012,11,21,11,6,0
2012,11,21,11,7,0
2012,11,21,11,8,0
2012,11,21,11,9,0
2012,11,21,11,10,0
2012,11,21,11,11,0
2012,11,21,11,12,0
2012,11,21,11,13,0
2012,11,21,11,14,0
2012,11,21,11,15,0
2012,11,21,11,16,0
2012,11,21,11,17,0
2012,11,21,11,18,0
2012,11,21,11,19,0
2012,11,21,11,20,0
2012,11,21,11,21,0
2012,11,21,11,22,0
2012,11,21,11,23,0
2012,11,21,11,24,0
2012,11,21,11,25,0
2012,11,21,11,26,0
2012,11,21,11,27,0
2012,11,21,11,28,0
2012,11,21,11,29,0
2012,11,21,11,30,0
2012,11,21,11,31,0
2012,11,21,11,32,0
2012,11,21,11,33,0
2012,11,21,11,34,0
2012,11,21,11,35,0
2012,11,21,11,36,0
2012,11,21,11,37,0
2012,11,21,11,38,0
2012,11,21,11,39,0
2012,11,21,11,40,0
2012,11,21,11,41,0
2012,11,21,11,42,0
2012,11,21,11,43,0
2012,11,21,11,44,0
2012,11,21,11,45,0
2012,11,21,11,46,0
2012,11,21,11,47,0
2012,11,21,11,48,0
2012,11,21,11,49,0
2012,11,21,11,50,0
2012,11,21,11,51,0
2012,11,21,11,52,0
2012,11,21,11,53,0
2012,11,21,11,54,0
2012,11,21,11,55,0
2012,11,21,11,56,0
2012,11,21,11,57,0
2012,11,21,11,58,0
2012,11,21,11,59,0
2012,11,21,12,0,0
2012,11,21,12,1,0
2012,11,21,12,2,0
2012,11,21,12,3,0
2012,11,21,12,4,0
2012,11,21,12,5,0
2012,11,21,12,6,0
2012,11,21,12,7,0
2012,11,21,12,8,0
2012,11,21,12,9,0
2012,11,21,12,10,0
2012,11,21,12,11,0
2012,11,21,12,12,0
2012,11,21,12,13,0
2012,11,21,12,14,0
2012,11,21,12,15,0
2012,11,21,12,16,0
2012,11,21,12,17,0
2012,11,21,12,18,0
2012,11,21,12,19,0
2012,11,21,12,20,0
2012,11,21,12,21,0
2012,11,21,12,22,0
2012,11,21,12,23,0
2012,11,21,12,24,0
2012,11,21,12,25,0
2012,11,21,12,26,0
2012,11,21,12,27,0
2012,11,21,12,28,0
2012,11,21,12,29,0
2012,11,21,12,30,0
2012,11,21,12,31,0
2012,11,21,12,32,0
2012,11,21,12,33,0
2012,11,21,12,34,0
2012,11,21,12,35,0
2012,11,21,12,36,0
2012,11,21,12,37,0
2012,11,21,12,38,0
2012,11,21,12,39,0
2012,11,21,12,40,0
2012,11,21,12,41,0
2012,11,21,12,42,0
2012,11,21,12,43,0
2012,11,21,12,44,0
2012,11,21,12,45,0
2012,11,21,12,46,0
2012,11,21,12,47,0
2012,11,21,12,48,0
2012,11,21,12,49,0
2012,11,21,12,50,0
2012,11,21,12,51,0
2012,11,21,12,52,0
2012,11,21,12,53,0
2012,11,21,12,54,0
2012,11,21,12,55,0
2012,11,21,12,56,0
2012,11,21,12,57,0
2012,11,21,12,58,0
2012,11,21,12,59,0
2012,11,21,13,0,0
2012,11,21,13,1,0
2012,11,21,13,2,0
2012,11,21,13,3,0
2012,11,21,13,4,0
2012,11,21,13,5,0
2012,11,21,13,6,0
2012,11,21,13,7,0
2012,11,21,13,8,0
2012,11,21,13,9,0
2012,11,21,13,10,0
2012,11,21,13,11,0
2012,11,21,13,12,0
2012,11,21,13,13,0
2012,11,21,13,14,0
2012,11,21,13,15,0
2012,11,21,13,16,0
2012,11,21,13,17,0
2012,11,21,13,18,0
2012,11,21,13,19,0
2012,11,21,13,20,0
2012,11,21,13,21,0
2012,11,21,13,22,0
2012,11,21,13,23,0
2012,11,21,13,24,0
2012,11,21,13,25,0
2012,11,21,13,26,0
2012,11,21,13,27,0
2012,11,21,13,28,0
2012,11,21,13,29,0
2012,11,21,13,30,0
2012,11,21,13,31,0
2012,11,21,13,32,0
2012,11,21,13,33,0
2012,11,21,13,34,0
2012,11,21,13,35,0
2012,11,21,13,36,0
2012,11,21,13,37,0
2012,11,21,13,38,0
2012,11,21,13,39,0
2012,11,21,13,40,0
2012,11,21,13,41,0
2012,11,21,13,42,0
2012,11,21,13,43,0
2012,11,21,13,44,0
2012,11,21,13,45,0
2012,11,21,13,46,0
2012,11,21,13,47,0
2012,11,21,13,48,0
2012,11,21,13,49,0
2012,11,21,13,50,0
2012,11,21,13,51,0
2012,11,21,13,52,0
2012,11,21,13,53,0
2012,11,21,13,54,0
2012,11,21,13,55,0
2012,11,21,13,56,0
2012,11,21,13,57,0
2012,11,21,13,58,0
2012,11,21,13,59,0
2012,11,21,14,0,0
2012,11,21,14,1,0
2012,11,21,14,2,0
2012,11,21,14,3,0
2012,11,21,14,4,0
2012,11,21,14,5,0
2012,11,21,14,6,0
2012,11,21,14,7,0
2012,11,21,14,8,0
2012,11,21,14,9,0
2012,11,21,14,10,0
2012,11,21,14,11,0
2012,11,21,14,12,0
2012,11,21,14,13,0
2012,11,21,14,14,0
2012,11,21,14,15,0
2012,11,21,14,16,0
2012,11,21,14,17,0
2012,11,21,14,18,0
2012,11,21,14,19,0
2012,11,21,14,20,0
2012,11,21,14,21,0
2012,11,21,14,22,0
2012,11,21,14,23,0
2012,11,21,14,24,0
2012,11,21,14,25,0
2012,11,21,14,26,0
2012,11,21,14,27,0
2012,11,21,14,28,0
2012,11,21,14,29,0
2012,11,21,14,30,0
2012,11,21,14,31,0
2012,11,21,14,32,0
2012,11,21,14,33,0
2012,11,21,14,34,0
2012,11,21,14,35,0
2012,11,21,14,36,0
2012,11,21,14,37,0
2012,11,21,14,38,0
2012,11,21,14,39,0
2012,11,21,14,40,0
2012,11,21,14,41,0
2012,11,21,14,42,0
2012,11,21,14,43,0
2012,11,21,14,44,0
2012,11,21,14,45,0
2012,11,21,14,46,0
2012,11,21,14,47,0
2012,11,21,14,48,0
2012,11,21,14,49,0
2012,11,21,14,50,0
2012,11,21,14,51,0
2012,11,21,14,52,0
2012,11,21,14,53,0
2012,11,21,14,54,0
2012,11,21,14,55,0
2012,11,21,14,56,0
2012,11,21,14,57,0
2012,11,21,14,58,0
2012,11,21,14,59,0
2012,11,21,15,0,0
